Results/Experiment 1 Results/New Benchmark/RES_20/output_p1_0.50_p2_0.00_n_20_19.txt
solutions: 0 nodes: 0  modelTime: 109  solveTime: 8  totalTime: 118  modelSize: 7358  readTime: 1 matchingSize: 0
