Results/Experiment 2 Results/New Benchmark/output_p1_0.50_p2_0.00_n_20_19.lp
clingo version 5.4.0
Reading from tempSRTISolver.lp ...
Solving...
Answer: 1
matched(3,2) matched(2,3) matched(5,4) matched(4,5) matched(7,6) matched(6,7) matched(1,8) matched(8,1) matched(11,10) matched(10,11) matched(9,12) matched(12,9) matched(15,14) matched(14,15) matched(13,16) matched(20,17) matched(19,18) matched(18,19) matched(17,20) matched(16,13)
Optimization: 100
Answer: 2
matched(4,2) matched(5,3) matched(2,4) matched(3,5) matched(7,6) matched(6,7) matched(1,8) matched(8,1) matched(11,10) matched(10,11) matched(9,12) matched(12,9) matched(15,14) matched(14,15) matched(13,16) matched(20,17) matched(19,18) matched(18,19) matched(17,20) matched(16,13)
Optimization: 97
Answer: 3
matched(4,2) matched(5,3) matched(2,4) matched(3,5) matched(7,6) matched(6,7) matched(1,8) matched(8,1) matched(12,10) matched(9,11) matched(10,12) matched(11,9) matched(16,14) matched(17,15) matched(14,16) matched(15,17) matched(19,18) matched(18,19) matched(13,20) matched(20,13)
Optimization: 94
Answer: 4
matched(6,2) matched(7,3) matched(5,4) matched(4,5) matched(2,6) matched(3,7) matched(1,8) matched(8,1) matched(11,10) matched(10,11) matched(9,12) matched(12,9) matched(16,14) matched(17,15) matched(14,16) matched(15,17) matched(19,18) matched(18,19) matched(13,20) matched(20,13)
Optimization: 93
Answer: 5
matched(4,2) matched(5,3) matched(2,4) matched(3,5) matched(7,6) matched(6,7) matched(1,8) matched(8,1) matched(11,10) matched(10,11) matched(9,12) matched(12,9) matched(16,14) matched(17,15) matched(14,16) matched(15,17) matched(19,18) matched(18,19) matched(13,20) matched(20,13)
Optimization: 89
OPTIMUM FOUND

Models       : 5
  Optimum    : yes
Optimization : 89
Calls        : 1
Time         : 0.012s (Solving: 0.00s 1st Model: 0.00s Unsat: 0.00s)
CPU Time     : 0.012s
